3168 3047 2979 2843 2807 2730 2621 2564 2408 2408 2342 2330 2262 2245 2235 2184 2145 2128 2101 2084 2081 2060 2036 2008 1987 1978 1962 1962 1940 1923 1925 1928 1905 1900 1882 1857 1827 1819 1780 1756 1739 1728 1707 1697 1671 1659 1630 1623 1613 1602 1600 1589 1580 1570 1559 1548 1534 1529 1519 1512 1495 1483 1474 1466 1463 1460 1451 1449 1442 1437 1431 1424 1423 1414 1406 1399 1395 1392 1387 1373 1368 1327 1325 1319 1309 1304 1295 1291 1284 1279 1274 1269 1266 1258 1258 1253 1252 1248 1246 1239 1234 1231 1227 1225 1220 1219 1216 1214 1212 1209 1203 1200 1198 1195 1194 1192 1189 1187 1182 1179 1172 1168 1165 1161 1161 1160 1159 1155 1155 1150 1149 1146 1146 1143 1138 1138 1137 1137 1136 1134 1133 1131 1129 1127 1126 1126 1124 1123 1122 1122 1120 1119 1113 1113 1107 1107 1104 1098 1098 1096 1093 1093 1093 1088 1088 1088 1088 1087 1087 1086 1086 1086 1084 1084 1083 1082 1082 1079 1079 1077 1071 1071 1071 1059 1059 1059 1044 1044 1044 1041 1039 1039 1037 1034 1034 1033 1032 1029 1029 1027 1027 1027 1027 1024 1024 1023 1023 1023 1018 1018 1014 1014 1013 1012 1012 1012 1010 1010 1010 1008 1008 1008 1007 1007 1006 1005 1004 1001 1001 999 999 999 999 997 997 997 997 995 995 995 995 995 993 993 993 991 991 990 988 984 981 981 981 981 981 981 981 981 981 981 981 981 981 981 981 981 981 981 981 981 981 979 979 979 979 972 972 971 971 971 971 971 971 971 971 971 971 971 971 971 971 971 971 971 971 971 971 971 971 971 971 971 971 971 971 971 971 971 971 971 971 971 971 971 971 971 971 971 971 971 971 971 971 971 971 971 971 971 971 971 971 971 971 971 971 971 971 971 971 971 971 971 971 971 971 971 971 971 971 971 971 971 971 971 971 971 971 971 971 971 971 971 971 971 971 971 971 971 971 971 971 971 971 971 971 971 971 971 971 971 971 971 971 971 971 971 971 971 971 971 971 971 971 971 971 971 971 971 971 971 971 971 971 971 971 971 971 971 971 971 971 971 971 971 971 971 971 971 971 971 971 971 971 971 971 971 971 971 971 971 971 971 971 971 971 971 971 971 971 971 971 971 971 971 971 971 971 971 971 971 971 971 971 971 971 971 971 971 971 971 971 971 971 971 971 971 971 971 971 971 971 971 971 971 971 971 971 971 971 971 971 971 971 971 971 971 971 971 971 971 971 971 971 971 971 971 971 971 971 971 971 971 971 971 971 971 971 971 971 971 971 971 971 971 971 971 971 971 971 971 971 971 971 971 971 971 971 971 971 971 971 971 971 971 971 971 971 971 971 971 971 971 971 971 971 971 971 971 971 971 971 971 971 971 971 971 971 971 971 971 971 971 971 971 971 971 971 971 971 971 971 971 971 971 971 971 971 971 971 971 971 971 971 971 971 971 971 971 971 971 971 971 971 971 971 971 971 971 971 971 971 971 971 971 971 971 971 971 971 971 971 971 971 971 971 971 971 971 971 971 971 971 971 971 971 971 971 971 971 971 971 971 971 971 971 971 971 971 971 971 971 971 971 971 971 971 971 971 971 971 971 971 971 971 971 971 971 971 971 971 971 971 971 971 971 971 971 971 971 971 971 971 971 971 971 971 971 971 971 971 971 971 971 971 971 971 971 971 971 971 971 971 971 971 971 971 971 971 971 971 971 971 971 971 971 971 971 971 971 971 971 971 971 971 971 971 971 971 971 971 971 971 971 971 971 971 971 971 971 971 971 971 971 971 971 971 971 971 971 971 971 971 971 971 971 971 971 971 971 971 971 971 971 971 971 971 971 971 971 971 971 971 971 971 971 971 971 971 971 971 971 971 971 971 971 971 971 971 
1168 1048 985 848 828 743 646 580 437 433 345 338 331 286 236 215 154 154 126 118 104 92 74 56 47 40 27 19 15 9 0 0 0 0 0 0 0 0 0 0 0 0 0 0 0 0 0 0 0 0 0 0 0 0 0 0 0 0 0 0 0 0 0 0 0 0 0 0 0 0 0 0 0 0 0 0 0 0 0 0 0 0 0 0 0 0 0 0 0 0 0 0 0 0 0 0 0 0 0 0 0 0 0 0 0 0 0 0 0 0 0 0 0 0 0 0 0 0 0 0 0 0 0 0 0 0 0 0 0 0 0 0 0 0 0 0 0 0 0 0 0 0 0 0 0 0 0 0 0 0 0 0 0 0 0 0 0 0 0 0 0 0 0 0 0 0 0 0 0 0 0 0 0 0 0 0 0 0 0 0 0 0 0 0 0 0 0 0 0 0 0 0 0 0 0 0 0 0 0 0 0 0 0 0 0 0 0 0 0 0 0 0 0 0 0 0 0 0 0 0 0 0 0 0 0 0 0 0 0 0 0 0 0 0 0 0 0 0 0 0 0 0 0 0 0 0 0 0 0 0 0 0 0 0 0 0 0 0 0 0 0 0 0 0 0 0 0 0 0 0 0 0 0 0 0 0 0 0 0 0 0 0 0 0 0 0 0 0 0 0 0 0 0 0 0 0 0 0 0 0 0 0 0 0 0 0 0 0 0 0 0 0 0 0 0 0 0 0 0 0 0 0 0 0 0 0 0 0 0 0 0 0 0 0 0 0 0 0 0 0 0 0 0 0 0 0 0 0 0 0 0 0 0 0 0 0 0 0 0 0 0 0 0 0 0 0 0 0 0 0 0 0 0 0 0 0 0 0 0 0 0 0 0 0 0 0 0 0 0 0 0 0 0 0 0 0 0 0 0 0 0 0 0 0 0 0 0 0 0 0 0 0 0 0 0 0 0 0 0 0 0 0 0 0 0 0 0 0 0 0 0 0 0 0 0 0 0 0 0 0 0 0 0 0 0 0 0 0 0 0 0 0 0 0 0 0 0 0 0 0 0 0 0 0 0 0 0 0 0 0 0 0 0 0 0 0 0 0 0 0 0 0 0 0 0 0 0 0 0 0 0 0 0 0 0 0 0 0 0 0 0 0 0 0 0 0 0 0 0 0 0 0 0 0 0 0 0 0 0 0 0 0 0 0 0 0 0 0 0 0 0 0 0 0 0 0 0 0 0 0 0 0 0 0 0 0 0 0 0 0 0 0 0 0 0 0 0 0 0 0 0 0 0 0 0 0 0 0 0 0 0 0 0 0 0 0 0 0 0 0 0 0 0 0 0 0 0 0 0 0 0 0 0 0 0 0 0 0 0 0 0 0 0 0 0 0 0 0 0 0 0 0 0 0 0 0 0 0 0 0 0 0 0 0 0 0 0 0 0 0 0 0 0 0 0 0 0 0 0 0 0 0 0 0 0 0 0 0 0 0 0 0 0 0 0 0 0 0 0 0 0 0 0 0 0 0 0 0 0 0 0 0 0 0 0 0 0 0 0 0 0 0 0 0 0 0 0 0 0 0 0 0 0 0 0 0 0 0 0 0 0 0 0 0 0 0 0 0 0 0 0 0 0 0 0 0 0 0 0 0 0 0 0 0 0 0 0 0 0 0 0 0 0 0 0 0 0 0 0 0 0 0 0 0 0 0 0 0 0 0 0 0 0 0 0 0 0 0 0 0 0 0 0 0 0 0 0 0 0 0 0 0 0 0 0 0 0 0 